NAME : portcgen-22-14
COMMENT : portcgen N=22, seed=14
TYPE : TSP
DIMENSION : 22
EDGE_WEIGHT_TYPE : EUC_2D
NODE_COORD_SECTION
1 -554200 -233037
2 -314263 383945
3 78745 -129328
4 133290 -97319
5 348821 -133723
6 151496 -152707
7 226888 -57866
8 309610 -54808
9 -47681 -239094
10 -172672 -51843
11 -141033 -63647
12 13990 62403
13 -261259 -70414
14 190142 465731
15 107617 236277
16 96589 90474
17 146008 -356202
18 106601 -103293
19 109894 -139760
20 -179452 226336
21 -269569 -349938
22 -120313 -325709
